     Program PWSCF v.7.0 starts on  1Jan2025 at  5:19: 4

     Waiting for input...
     Reading input from standard input

     Current dimensions of program PWSCF are:
     Max number of different atomic species (ntypx) = 10
     Max number of k-points (npk) =  40000
     Max angular momentum in pseudopotentials (lmaxx) =  4
     file C.pz-rrkjus.UPF: wavefunction(s)  2S renormalized

     Subspace diagonalization in iterative solution of the eigenvalue problem:
     a serial algorithm will be used

     Using Slab Decomposition

     bravais-lattice index     =            4
     lattice parameter (alat)  =       2.4600  a.u.
     unit-cell volume          =    1160.3218 (a.u.)^3
     number of atoms/cell      =            2
     number of atomic types    =            1
     number of electrons       =         8.00
     number of Kohn-Sham states=            8
     kinetic-energy cutoff     =      40.0000  Ry
     charge density cutoff     =     400.0000  Ry
     scf convergence threshold =      1.0E-08
     mixing beta               =       0.7000
     number of iterations used =            8  plain     mixing
     Exchange-correlation= SLA  PZ   NOGX NOGC
                           (   1   1   0   0   0   0   0)

     celldm(1)=   2.460000  celldm(2)=   0.000000  celldm(3)=  90.000000
     celldm(4)=   0.000000  celldm(5)=   0.000000  celldm(6)=   0.000000

     crystal axes: (cart. coord. in units of alat)
               a(1) = (   1.000000   0.000000   0.000000 )
               a(2) = (  -0.500000   0.866025   0.000000 )
               a(3) = (   0.000000   0.000000  90.000000 )

     reciprocal axes: (cart. coord. in units 2 pi/alat)
               b(1) = (  1.000000  0.577350 -0.000000 )
               b(2) = (  0.000000  1.154701  0.000000 )
               b(3) = (  0.000000 -0.000000  0.011111 )

     PseudoPot. # 1 for C  read from file:
     ./pseudo/C.pz-rrkjus.UPF
     MD5 check sum: b6daa4d29350031528385b7e2af80775
     Pseudo is Ultrasoft, Zval =  4.0
     Generated by new atomic code, or converted to UPF format
     Using radial grid of 1425 points,  4 beta functions with:
                l(1) =   0
                l(2) =   0
                l(3) =   1
                l(4) =   1
     Q(r) pseudized with 0 coefficients

     atomic species   valence    mass     pseudopotential
        C              4.00    12.01100     C ( 1.00)

      4 Sym. Ops. (no inversion) found

   Cartesian axes

     site n.     atom                  positions (alat units)
         1           C   tau(   1) = (   0.0000000   0.0000000   0.0000000  )
         2           C   tau(   2) = (   0.9448631   0.0000000   0.0000000  )

     number of k points=    13  Gaussian smearing, width (Ry)=  0.0100
                       cart. coord. in units 2pi/alat
        k(    1) = (   0.0000000   0.0000000   0.0000000), wk =   0.0555556
        k(    2) = (   0.0000000   0.1924501   0.0000000), wk =   0.1111111
        k(    3) = (   0.0000000   0.3849002   0.0000000), wk =   0.1111111
        k(    4) = (   0.0000000  -0.5773503   0.0000000), wk =   0.0555556
        k(    5) = (   0.1666667   0.2886751   0.0000000), wk =   0.2222222
        k(    6) = (   0.1666667   0.4811252   0.0000000), wk =   0.2222222
        k(    7) = (   0.3333333   0.5773503   0.0000000), wk =   0.1111111
        k(    8) = (  -0.1666667   0.0962250   0.0000000), wk =   0.2222222
        k(    9) = (  -0.3333333   0.1924501   0.0000000), wk =   0.2222222
        k(   10) = (   0.5000000  -0.2886751   0.0000000), wk =   0.1111111
        k(   11) = (   0.3333333   0.0000000   0.0000000), wk =   0.1111111
        k(   12) = (  -0.3333333   0.3849002   0.0000000), wk =   0.2222222
        k(   13) = (   0.5000000   0.0962250   0.0000000), wk =   0.2222222

     Initial potential from superposition of free atoms

     starting charge       7.9999, renormalised to       8.0000

     negative rho (up, down):  3.841E-05 0.000E+00
     Starting wfcs are    8 randomized atomic wfcs

     Self-consistent Calculation

     iteration #  1     ecut=    40.00 Ry     beta= 0.70
     Davidson diagonalization with overlap
     ethr =  1.00E-02,  avg # of iterations =  7.0

     negative rho (up, down):  9.715E-07 0.000E+00

     total energy              =     182.51366493 Ry
     estimated scf accuracy    <       8.74577400 Ry

[...]

     total energy              =     180.07595148 Ry
     estimated scf accuracy    <       0.00000002 Ry

     iteration # 25     ecut=    40.00 Ry     beta= 0.70
     Davidson diagonalization with overlap
     ethr =  1.94E-10,  avg # of iterations =  2.2

     negative rho (up, down):  6.316E-06 0.000E+00

     End of self-consistent calculation

          k = 0.0000 0.0000 0.0000 (  5359 PWs)   bands (ev):

   -58.3690 -36.8137 -33.8662 -33.1177  -9.4155  -8.5405   0.1622   0.5403

[...]

          k =-0.1667 0.0962 0.0000 (  5174 PWs)   bands (ev):

[...]

          k =-0.3333 0.3849 0.0000 (  4826 PWs)   bands (ev):

[...]

          k = 0.5000 0.0962 0.0000 (  4826 PWs)   bands (ev):

   -67.0167 -50.4890 -46.7676  -2.8008  -0.5400  12.0176  15.8920  21.1287

     the Fermi energy is    -2.8125 ev

!    total energy              =     180.07595147 Ry
     estimated scf accuracy    <          5.1E-09 Ry
     smearing contrib. (-TS)   =      -0.00103407 Ry
     internal energy E=F+TS    =     180.07698554 Ry

     The total energy is F=E-TS. E is the sum of the following terms:
     one-electron contribution =   -5522.95642886 Ry
     hartree contribution      =    2756.23815705 Ry
     xc contribution           =     -10.91707305 Ry
     ewald contribution        =    2957.71233040 Ry

     convergence has been achieved in  25 iterations

     Forces acting on atoms (cartesian axes, Ry/au):

     atom    1 type  1   force =  1731.82117145    0.00000000    0.00000000
     atom    2 type  1   force = -1731.82117145   -0.00000000    0.00000000

     Total force =  2449.164988     Total SCF correction =     0.000000

     Computing stress (Cartesian axis) and pressure

          total   stress  (Ry/bohr**3)                   (kbar)     P=    10553.53
   0.20887316   0.00000000   0.00000000        30726.30        0.00        0.00
   0.00000000   0.00639137   0.00000000            0.00      940.20        0.00
   0.00000000  -0.00000000  -0.00004013            0.00       -0.00       -5.90

     Writing all to output data dir ./output/graphene/graphene.save/

     General routines

     Parallel routines

   This run was terminated on:   5:19:51   1Jan2025

   JOB DONE.