     Program PWSCF v.7.0 starts on  1Jan2025 at  5:55:18

     R & G space division:  proc/nbgrp/npool/nimage =       4

     Waiting for input...
     Reading input from standard input

     Current dimensions of program PWSCF are:
     Max number of different atomic species (ntypx) = 10
     Max number of k-points (npk) =  40000
     Max angular momentum in pseudopotentials (lmaxx) =  4

     Subspace diagonalization in iterative solution of the eigenvalue problem:
     a serial algorithm will be used

     Using Slab Decomposition

     bravais-lattice index     =            2
     lattice parameter (alat)  =      10.2600  a.u.
     unit-cell volume          =     270.0114 (a.u.)^3
     number of atoms/cell      =            2
     number of atomic types    =            1
     number of electrons       =         8.00
     number of Kohn-Sham states=           20
     kinetic-energy cutoff     =      40.0000  Ry
     charge density cutoff     =     160.0000  Ry
     scf convergence threshold =      1.0E-06
     mixing beta               =       0.6000
     number of iterations used =            8  plain     mixing
     Exchange-correlation= SLA  PZ   NOGX NOGC
                           (   1   1   0   0   0   0   0)

     celldm(1)=  10.260000  celldm(2)=   0.000000  celldm(3)=   0.000000
     celldm(4)=   0.000000  celldm(5)=   0.000000  celldm(6)=   0.000000

     crystal axes: (cart. coord. in units of alat)
               a(1) = (  -0.500000   0.000000   0.500000 )
               a(2) = (   0.000000   0.500000   0.500000 )
               a(3) = (  -0.500000   0.500000   0.000000 )

     reciprocal axes: (cart. coord. in units 2 pi/alat)
               b(1) = ( -1.000000 -1.000000  1.000000 )
               b(2) = (  1.000000  1.000000  1.000000 )
               b(3) = ( -1.000000  1.000000 -1.000000 )

     PseudoPot. # 1 for Si read from file:
     ./pseudos/Si.pz-vbc.UPF
     MD5 check sum: 9f25e6ff280f3123e9b3a84715b2e9c9
     Pseudo is Norm-conserving, Zval =  4.0
     Generated by new atomic code, or converted to UPF format
     Using radial grid of  431 points,  2 beta functions with:
                l(1) =   0
                l(2) =   1

     atomic species   valence    mass     pseudopotential
        Si             4.00    28.08600     Si( 1.00)

     No symmetry found

                                    s                        frac. trans.

      isym =  1     identity

 cryst.   s( 1) = (     1          0          0      )
                  (     0          1          0      )
                  (     0          0          1      )

 cart.    s( 1) = (  1.0000000  0.0000000  0.0000000 )
                  (  0.0000000  1.0000000  0.0000000 )
                  (  0.0000000  0.0000000  1.0000000 )

     point group C_1 (1)
     there are  1 classes
     the character table:

       E
A      1.00

     the symmetry operations in each class and the name of the first element:

     E        1
          identity

   Cartesian axes

     site n.     atom                  positions (alat units)
         1           Si  tau(   1) = (   0.0000000   0.0000000   0.0000000  )
         2           Si  tau(   2) = (   0.2500000   0.2500000   0.2500000  )

   Crystallographic axes

     site n.     atom                  positions (cryst. coord.)
         1           Si  tau(   1) = (  0.0000000  0.0000000  0.0000000  )
         2           Si  tau(   2) = ( -0.2500000  0.7500000 -0.2500000  )

     number of k points=   216
                       cart. coord. in units 2pi/alat
        k(    1) = (   0.0000000   0.0000000   0.0000000), wk =   0.0092593
        k(    2) = (  -0.1666667   0.1666667  -0.1666667), wk =   0.0092593
        k(    3) = (  -0.3333333   0.3333333  -0.3333333), wk =   0.0092593
        k(    4) = (  -0.5000000   0.5000000  -0.5000000), wk =   0.0092593
        k(    5) = (  -0.6666667   0.6666667  -0.6666667), wk =   0.0092593
        k(    6) = (  -0.8333333   0.8333333  -0.8333333), wk =   0.0092593
        k(    7) = (   0.1666667   0.1666667   0.1666667), wk =   0.0092593
        k(    8) = (   0.0000000   0.3333333   0.0000000), wk =   0.0092593
        k(    9) = (  -0.1666667   0.5000000  -0.1666667), wk =   0.0092593
        k(   10) = (  -0.3333333   0.6666667  -0.3333333), wk =   0.0092593
        k(   11) = (  -0.5000000   0.8333333  -0.5000000), wk =   0.0092593
        k(   12) = (  -0.6666667   1.0000000  -0.6666667), wk =   0.0092593
        k(   13) = (   0.3333333   0.3333333   0.3333333), wk =   0.0092593
        k(   14) = (   0.1666667   0.5000000   0.1666667), wk =   0.0092593
        k(   15) = (   0.0000000   0.6666667   0.0000000), wk =   0.0092593
        k(   16) = (  -0.1666667   0.8333333  -0.1666667), wk =   0.0092593
        k(   17) = (  -0.3333333   1.0000000  -0.3333333), wk =   0.0092593
        k(   18) = (  -0.5000000   1.1666667  -0.5000000), wk =   0.0092593
        k(   19) = (   0.5000000   0.5000000   0.5000000), wk =   0.0092593
        k(   20) = (   0.3333333   0.6666667   0.3333333), wk =   0.0092593
        k(   21) = (   0.1666667   0.8333333   0.1666667), wk =   0.0092593
        k(   22) = (   0.0000000   1.0000000   0.0000000), wk =   0.0092593
        k(   23) = (  -0.1666667   1.1666667  -0.1666667), wk =   0.0092593
        k(   24) = (  -0.3333333   1.3333333  -0.3333333), wk =   0.0092593
        k(   25) = (   0.6666667   0.6666667   0.6666667), wk =   0.0092593
        k(   26) = (   0.5000000   0.8333333   0.5000000), wk =   0.0092593
        k(   27) = (   0.3333333   1.0000000   0.3333333), wk =   0.0092593
        k(   28) = (   0.1666667   1.1666667   0.1666667), wk =   0.0092593
        k(   29) = (   0.0000000   1.3333333   0.0000000), wk =   0.0092593
        k(   30) = (  -0.1666667   1.5000000  -0.1666667), wk =   0.0092593
        k(   31) = (   0.8333333   0.8333333   0.8333333), wk =   0.0092593
        k(   32) = (   0.6666667   1.0000000   0.6666667), wk =   0.0092593
        k(   33) = (   0.5000000   1.1666667   0.5000000), wk =   0.0092593
        k(   34) = (   0.3333333   1.3333333   0.3333333), wk =   0.0092593
        k(   35) = (   0.1666667   1.5000000   0.1666667), wk =   0.0092593
        k(   36) = (   0.0000000   1.6666667   0.0000000), wk =   0.0092593
        k(   37) = (  -0.1666667  -0.1666667   0.1666667), wk =   0.0092593
        k(   38) = (  -0.3333333   0.0000000   0.0000000), wk =   0.0092593
        k(   39) = (  -0.5000000   0.1666667  -0.1666667), wk =   0.0092593
        k(   40) = (  -0.6666667   0.3333333  -0.3333333), wk =   0.0092593
        k(   41) = (  -0.8333333   0.5000000  -0.5000000), wk =   0.0092593
        k(   42) = (  -1.0000000   0.6666667  -0.6666667), wk =   0.0092593
        k(   43) = (   0.0000000   0.0000000   0.3333333), wk =   0.0092593
        k(   44) = (  -0.1666667   0.1666667   0.1666667), wk =   0.0092593
        k(   45) = (  -0.3333333   0.3333333   0.0000000), wk =   0.0092593
        k(   46) = (  -0.5000000   0.5000000  -0.1666667), wk =   0.0092593
        k(   47) = (  -0.6666667   0.6666667  -0.3333333), wk =   0.0092593
        k(   48) = (  -0.8333333   0.8333333  -0.5000000), wk =   0.0092593
        k(   49) = (   0.1666667   0.1666667   0.5000000), wk =   0.0092593
        k(   50) = (  -0.0000000   0.3333333   0.3333333), wk =   0.0092593
        k(   51) = (  -0.1666667   0.5000000   0.1666667), wk =   0.0092593
        k(   52) = (  -0.3333333   0.6666667   0.0000000), wk =   0.0092593
        k(   53) = (  -0.5000000   0.8333333  -0.1666667), wk =   0.0092593
        k(   54) = (  -0.6666667   1.0000000  -0.3333333), wk =   0.0092593
        k(   55) = (   0.3333333   0.3333333   0.6666667), wk =   0.0092593
        k(   56) = (   0.1666667   0.5000000   0.5000000), wk =   0.0092593
        k(   57) = (   0.0000000   0.6666667   0.3333333), wk =   0.0092593
        k(   58) = (  -0.1666667   0.8333333   0.1666667), wk =   0.0092593
        k(   59) = (  -0.3333333   1.0000000   0.0000000), wk =   0.0092593
        k(   60) = (  -0.5000000   1.1666667  -0.1666667), wk =   0.0092593
[...]
        k(  202) = (  -0.8333333   0.1666667   0.8333333), wk =   0.0092593
        k(  203) = (  -1.0000000   0.3333333   0.6666667), wk =   0.0092593
        k(  204) = (  -1.1666667   0.5000000   0.5000000), wk =   0.0092593
        k(  205) = (  -0.1666667  -0.1666667   1.5000000), wk =   0.0092593
        k(  206) = (  -0.3333333   0.0000000   1.3333333), wk =   0.0092593
        k(  207) = (  -0.5000000   0.1666667   1.1666667), wk =   0.0092593
        k(  208) = (  -0.6666667   0.3333333   1.0000000), wk =   0.0092593
        k(  209) = (  -0.8333333   0.5000000   0.8333333), wk =   0.0092593
        k(  210) = (  -1.0000000   0.6666667   0.6666667), wk =   0.0092593
        k(  211) = (   0.0000000   0.0000000   1.6666667), wk =   0.0092593
        k(  212) = (  -0.1666667   0.1666667   1.5000000), wk =   0.0092593
        k(  213) = (  -0.3333333   0.3333333   1.3333333), wk =   0.0092593
        k(  214) = (  -0.5000000   0.5000000   1.1666667), wk =   0.0092593
        k(  215) = (  -0.6666667   0.6666667   1.0000000), wk =   0.0092593
        k(  216) = (  -0.8333333   0.8333333   0.8333333), wk =   0.0092593

                       cryst. coord.
        k(    1) = (   0.0000000   0.0000000   0.0000000), wk =   0.0092593
        k(    2) = (   0.0000000   0.0000000   0.1666667), wk =   0.0092593
        k(    3) = (   0.0000000   0.0000000   0.3333333), wk =   0.0092593
        k(    4) = (   0.0000000   0.0000000   0.5000000), wk =   0.0092593
        k(    5) = (   0.0000000   0.0000000   0.6666667), wk =   0.0092593
        k(    6) = (   0.0000000   0.0000000   0.8333333), wk =   0.0092593
        k(    7) = (   0.0000000   0.1666667   0.0000000), wk =   0.0092593
        k(    8) = (   0.0000000   0.1666667   0.1666667), wk =   0.0092593
        k(    9) = (   0.0000000   0.1666667   0.3333333), wk =   0.0092593
        k(   10) = (   0.0000000   0.1666667   0.5000000), wk =   0.0092593
        k(   11) = (   0.0000000   0.1666667   0.6666667), wk =   0.0092593
        k(   12) = (   0.0000000   0.1666667   0.8333333), wk =   0.0092593
        k(   13) = (   0.0000000   0.3333333   0.0000000), wk =   0.0092593
        k(   14) = (   0.0000000   0.3333333   0.1666667), wk =   0.0092593
        k(   15) = (   0.0000000   0.3333333   0.3333333), wk =   0.0092593
        k(   16) = (   0.0000000   0.3333333   0.5000000), wk =   0.0092593
        k(   17) = (   0.0000000   0.3333333   0.6666667), wk =   0.0092593
        k(   18) = (   0.0000000   0.3333333   0.8333333), wk =   0.0092593
        k(   19) = (   0.0000000   0.5000000   0.0000000), wk =   0.0092593
        k(   20) = (   0.0000000   0.5000000   0.1666667), wk =   0.0092593
        k(   21) = (   0.0000000   0.5000000   0.3333333), wk =   0.0092593
        k(   22) = (   0.0000000   0.5000000   0.5000000), wk =   0.0092593
        k(   23) = (   0.0000000   0.5000000   0.6666667), wk =   0.0092593
        k(   24) = (   0.0000000   0.5000000   0.8333333), wk =   0.0092593
        k(   25) = (   0.0000000   0.6666667   0.0000000), wk =   0.0092593
        k(   26) = (   0.0000000   0.6666667   0.1666667), wk =   0.0092593
        k(   27) = (   0.0000000   0.6666667   0.3333333), wk =   0.0092593
        k(   28) = (   0.0000000   0.6666667   0.5000000), wk =   0.0092593
        k(   29) = (   0.0000000   0.6666667   0.6666667), wk =   0.0092593
        k(   30) = (   0.0000000   0.6666667   0.8333333), wk =   0.0092593
        k(   31) = (   0.0000000   0.8333333   0.0000000), wk =   0.0092593
        k(   32) = (   0.0000000   0.8333333   0.1666667), wk =   0.0092593
        k(   33) = (   0.0000000   0.8333333   0.3333333), wk =   0.0092593
        k(   34) = (   0.0000000   0.8333333   0.5000000), wk =   0.0092593
        k(   35) = (   0.0000000   0.8333333   0.6666667), wk =   0.0092593
        k(   36) = (   0.0000000   0.8333333   0.8333333), wk =   0.0092593
        k(   37) = (   0.1666667   0.0000000   0.0000000), wk =   0.0092593
        k(   38) = (   0.1666667   0.0000000   0.1666667), wk =   0.0092593
        k(   39) = (   0.1666667   0.0000000   0.3333333), wk =   0.0092593
        k(   40) = (   0.1666667   0.0000000   0.5000000), wk =   0.0092593
        k(   41) = (   0.1666667   0.0000000   0.6666667), wk =   0.0092593
        k(   42) = (   0.1666667   0.0000000   0.8333333), wk =   0.0092593
        k(   43) = (   0.1666667   0.1666667   0.0000000), wk =   0.0092593
        k(   44) = (   0.1666667   0.1666667   0.1666667), wk =   0.0092593
        k(   45) = (   0.1666667   0.1666667   0.3333333), wk =   0.0092593
        k(   46) = (   0.1666667   0.1666667   0.5000000), wk =   0.0092593
        k(   47) = (   0.1666667   0.1666667   0.6666667), wk =   0.0092593
        k(   48) = (   0.1666667   0.1666667   0.8333333), wk =   0.0092593
        k(   49) = (   0.1666667   0.3333333   0.0000000), wk =   0.0092593
        k(   50) = (   0.1666667   0.3333333   0.1666667), wk =   0.0092593
        k(   51) = (   0.1666667   0.3333333   0.3333333), wk =   0.0092593
        k(   52) = (   0.1666667   0.3333333   0.5000000), wk =   0.0092593
        k(   53) = (   0.1666667   0.3333333   0.6666667), wk =   0.0092593
        k(   54) = (   0.1666667   0.3333333   0.8333333), wk =   0.0092593
        k(   55) = (   0.1666667   0.5000000   0.0000000), wk =   0.0092593
        k(   56) = (   0.1666667   0.5000000   0.1666667), wk =   0.0092593
        k(   57) = (   0.1666667   0.5000000   0.3333333), wk =   0.0092593
        k(   58) = (   0.1666667   0.5000000   0.5000000), wk =   0.0092593
        k(   59) = (   0.1666667   0.5000000   0.6666667), wk =   0.0092593
        k(   60) = (   0.1666667   0.5000000   0.8333333), wk =   0.0092593
[...]
        k(  202) = (   0.8333333   0.5000000   0.5000000), wk =   0.0092593
        k(  203) = (   0.8333333   0.5000000   0.6666667), wk =   0.0092593
        k(  204) = (   0.8333333   0.5000000   0.8333333), wk =   0.0092593
        k(  205) = (   0.8333333   0.6666667   0.0000000), wk =   0.0092593
        k(  206) = (   0.8333333   0.6666667   0.1666667), wk =   0.0092593
        k(  207) = (   0.8333333   0.6666667   0.3333333), wk =   0.0092593
        k(  208) = (   0.8333333   0.6666667   0.5000000), wk =   0.0092593
        k(  209) = (   0.8333333   0.6666667   0.6666667), wk =   0.0092593
        k(  210) = (   0.8333333   0.6666667   0.8333333), wk =   0.0092593
        k(  211) = (   0.8333333   0.8333333   0.0000000), wk =   0.0092593
        k(  212) = (   0.8333333   0.8333333   0.1666667), wk =   0.0092593
        k(  213) = (   0.8333333   0.8333333   0.3333333), wk =   0.0092593
        k(  214) = (   0.8333333   0.8333333   0.5000000), wk =   0.0092593
        k(  215) = (   0.8333333   0.8333333   0.6666667), wk =   0.0092593
        k(  216) = (   0.8333333   0.8333333   0.8333333), wk =   0.0092593

     Initial potential from superposition of free atoms

     starting charge       7.9990, renormalised to       8.0000
     Starting wfcs are    8 randomized atomic wfcs +   12 random wfcs

     Self-consistent Calculation

     iteration #  1     ecut=    40.00 Ry     beta= 0.60
     Davidson diagonalization with overlap

     ethr =  1.00E-02,  avg # of iterations =  6.7

     Threshold (ethr) on eigenvalues was too large:
     Diagonalizing with lowered threshold

     Davidson diagonalization with overlap

[...]

     total energy              =     -15.84918666 Ry
     estimated scf accuracy    <       0.06239117 Ry

[...]

     total energy              =     -15.85125274 Ry
     estimated scf accuracy    <       0.00011664 Ry

     iteration #  4     ecut=    40.00 Ry     beta= 0.60
     Davidson diagonalization with overlap

     ethr =  1.46E-06,  avg # of iterations =  4.5

     End of self-consistent calculation

          k = 0.0000 0.0000 0.0000 (  1139 PWs)   bands (ev):

    -5.8800   6.0520   6.0520   6.0520   8.6105   8.6105   8.6105   9.3259
    13.7502  13.8056  13.8056  17.2060  17.2060  17.2060  21.0904  28.7327
    28.7327  28.7327  29.8061  29.8061

     occupation numbers
     1.0000   1.0000   1.0000   1.0000   0.0000   0.0000   0.0000   0.0000
     0.0000   0.0000   0.0000   0.0000   0.0000   0.0000   0.0000   0.0000
     0.0000   0.0000   0.0000   0.0000

          k =-0.1667 0.1667-0.1667 (  1167 PWs)   bands (ev):

[...]

          k = 0.0000 0.0000 1.6667 (  1162 PWs)   bands (ev):

[...]

          k =-0.8333 0.8333 0.8333 (  1167 PWs)   bands (ev):

    -5.5184   3.6750   5.6018   5.6018   8.3636   9.2552   9.2552  11.3919
    13.1486  13.1486  14.9157  16.5470  19.0870  19.0870  23.0860  25.7890
    25.7890  26.2393  29.5128  29.5128

     occupation numbers
     1.0000   1.0000   1.0000   1.0000   0.0000   0.0000   0.0000   0.0000
     0.0000   0.0000   0.0000   0.0000   0.0000   0.0000   0.0000   0.0000
     0.0000   0.0000   0.0000   0.0000

     highest occupied, lowest unoccupied level (ev):     6.0520    6.7082

!    total energy              =     -15.85125715 Ry
     estimated scf accuracy    <       0.00000015 Ry

     The total energy is the sum of the following terms:
     one-electron contribution =       4.65166513 Ry
     hartree contribution      =       1.09770815 Ry
     xc contribution           =      -4.79970082 Ry
     ewald contribution        =     -16.80092960 Ry

     convergence has been achieved in   4 iterations

     Writing all to output data dir ./tmp/silicon.save/

     General routines

     Parallel routines

   This run was terminated on:   5:56:29   1Jan2025

   JOB DONE.